n = 20;
budget = 2699000;
groceries = [|77,21,203,80,2260|84,120,6,102,2062|126,203,84,68,1835|80,25,120,75,2940|168,192,138,91,3020|203,70,28,173,3576|14,357,112,58,1501|130,50,80,127,1806|45,20,140,156,1164|30,280,145,185,3989|25,275,50,137,2043|10,510,240,152,823|80,232,152,77,2452|70,245,189,115,2801|42,35,539,102,3710|99,225,630,159,2621|150,150,530,153,1867|98,126,273,55,2337|6,258,156,97,3509|14,525,56,100,1245|];
requirements = [|380,460|2000,2000|570,620|];
offset = [|38,92|1000,1300|142,217|];
variety = 31;